data/lp_files/pEFS/57_5.lp
\ Model foo
\ LP format - for model browsing. Use MPS format to capture full model detail.
Minimize
  z
Subject To
 allocateEach[1]: x[1,1] + x[2,1] + x[3,1] = 1
 allocateEach[2]: x[1,2] + x[2,2] + x[3,2] = 1
 allocateEach[3]: x[1,3] + x[2,3] + x[3,3] = 1
 allocateEach[4]: x[1,4] + x[2,4] + x[3,4] = 1
 allocateEach[5]: x[1,5] + x[2,5] + x[3,5] = 1
 allocateEach[6]: x[1,6] + x[2,6] + x[3,6] = 1
 allocateEach[7]: x[1,7] + x[2,7] + x[3,7] = 1
 allocateEach[8]: x[1,8] + x[2,8] + x[3,8] = 1
 allocateEach[9]: x[1,9] + x[2,9] + x[3,9] = 1
 allocateEach[10]: x[1,10] + x[2,10] + x[3,10] = 1
 allocateEach[11]: x[1,11] + x[2,11] + x[3,11] = 1
 allocateEach[12]: x[1,12] + x[2,12] + x[3,12] = 1
 allocateEach[13]: x[1,13] + x[2,13] + x[3,13] = 1
 allocateEach[14]: x[1,14] + x[2,14] + x[3,14] = 1
 allocateEach[15]: x[1,15] + x[2,15] + x[3,15] = 1
 allocateEach[16]: x[1,16] + x[2,16] + x[3,16] = 1
 allocateEach[17]: x[1,17] + x[2,17] + x[3,17] = 1
 allocateAllCash: cashProportion[1] + cashProportion[2] + cashProportion[3]
   = 1
 findWorstP[1,2]: z + 0.0333953001680897 cashProportion[1]
   - 0.0333953001680897 cashProportion[2] + 0.00864938274353523 x[1,1]
   + 0.0987387708303185 x[1,2] + 0.00998519475025881 x[1,3]
   + 0.084412187058208 x[1,4] + 0.0348424298420402 x[1,5]
   + 0.0739705898723186 x[1,6] + 0.0951766054790556 x[1,7]
   + 0.1102601493883094 x[1,8] + 0.1012545501096479 x[1,9]
   + 0.0241336702548061 x[1,10] + 0.0462079636659134 x[1,11]
   + 0.0897220397849342 x[1,12] + 0.09160330836107 x[1,13]
   + 0.0434918125855754 x[1,14] + 0.0213618603408547 x[1,15]
   + 0.0317811939932987 x[1,16] + 0.00101299077176539 x[1,17]
   - 0.00864938274353523 x[2,1] - 0.0987387708303185 x[2,2]
   - 0.00998519475025881 x[2,3] - 0.084412187058208 x[2,4]
   - 0.0348424298420402 x[2,5] - 0.0739705898723186 x[2,6]
   - 0.0951766054790556 x[2,7] - 0.1102601493883094 x[2,8]
   - 0.1012545501096479 x[2,9] - 0.0241336702548061 x[2,10]
   - 0.0462079636659134 x[2,11] - 0.0897220397849342 x[2,12]
   - 0.09160330836107 x[2,13] - 0.0434918125855754 x[2,14]
   - 0.0213618603408547 x[2,15] - 0.0317811939932987 x[2,16]
   - 0.00101299077176539 x[2,17] >= 0
 findWorstP[1,3]: z + 0.0333953001680897 cashProportion[1]
   - 0.0333953001680897 cashProportion[3] + 0.00864938274353523 x[1,1]
   + 0.0987387708303185 x[1,2] + 0.00998519475025881 x[1,3]
   + 0.084412187058208 x[1,4] + 0.0348424298420402 x[1,5]
   + 0.0739705898723186 x[1,6] + 0.0951766054790556 x[1,7]
   + 0.1102601493883094 x[1,8] + 0.1012545501096479 x[1,9]
   + 0.0241336702548061 x[1,10] + 0.0462079636659134 x[1,11]
   + 0.0897220397849342 x[1,12] + 0.09160330836107 x[1,13]
   + 0.0434918125855754 x[1,14] + 0.0213618603408547 x[1,15]
   + 0.0317811939932987 x[1,16] + 0.00101299077176539 x[1,17]
   - 0.00864938274353523 x[3,1] - 0.0987387708303185 x[3,2]
   - 0.00998519475025881 x[3,3] - 0.084412187058208 x[3,4]
   - 0.0348424298420402 x[3,5] - 0.0739705898723186 x[3,6]
   - 0.0951766054790556 x[3,7] - 0.1102601493883094 x[3,8]
   - 0.1012545501096479 x[3,9] - 0.0241336702548061 x[3,10]
   - 0.0462079636659134 x[3,11] - 0.0897220397849342 x[3,12]
   - 0.09160330836107 x[3,13] - 0.0434918125855754 x[3,14]
   - 0.0213618603408547 x[3,15] - 0.0317811939932987 x[3,16]
   - 0.00101299077176539 x[3,17] >= 0
 findWorstP[2,1]: z - 0.0322199548920631 cashProportion[1]
   + 0.0322199548920631 cashProportion[2] - 0.0352486306519171 x[1,1]
   - 0.0983353023305767 x[1,2] - 0.087777897110944 x[1,3]
   - 0.1067661905273333 x[1,4] - 0.014294919987112 x[1,5]
   - 0.0246267855225003 x[1,6] - 0.00573515197078724 x[1,7]
   - 0.011212544302438 x[1,8] - 0.1057458919557513 x[1,9]
   - 0.083170443561379 x[1,10] - 0.0609708946407475 x[1,11]
   - 0.0287187197937923 x[1,12] - 0.05408656427881 x[1,13]
   - 0.0042852540006444 x[1,14] - 0.1040597143164 x[1,15]
   - 0.080109547846633 x[1,16] - 0.0626355923101708 x[1,17]
   + 0.0352486306519171 x[2,1] + 0.0983353023305767 x[2,2]
   + 0.087777897110944 x[2,3] + 0.1067661905273333 x[2,4]
   + 0.014294919987112 x[2,5] + 0.0246267855225003 x[2,6]
   + 0.00573515197078724 x[2,7] + 0.011212544302438 x[2,8]
   + 0.1057458919557513 x[2,9] + 0.083170443561379 x[2,10]
   + 0.0609708946407475 x[2,11] + 0.0287187197937923 x[2,12]
   + 0.05408656427881 x[2,13] + 0.0042852540006444 x[2,14]
   + 0.1040597143164 x[2,15] + 0.080109547846633 x[2,16]
   + 0.0626355923101708 x[2,17] >= 0
 findWorstP[2,3]: z + 0.0322199548920631 cashProportion[2]
   - 0.0322199548920631 cashProportion[3] + 0.0352486306519171 x[2,1]
   + 0.0983353023305767 x[2,2] + 0.087777897110944 x[2,3]
   + 0.1067661905273333 x[2,4] + 0.014294919987112 x[2,5]
   + 0.0246267855225003 x[2,6] + 0.00573515197078724 x[2,7]
   + 0.011212544302438 x[2,8] + 0.1057458919557513 x[2,9]
   + 0.083170443561379 x[2,10] + 0.0609708946407475 x[2,11]
   + 0.0287187197937923 x[2,12] + 0.05408656427881 x[2,13]
   + 0.0042852540006444 x[2,14] + 0.1040597143164 x[2,15]
   + 0.080109547846633 x[2,16] + 0.0626355923101708 x[2,17]
   - 0.0352486306519171 x[3,1] - 0.0983353023305767 x[3,2]
   - 0.087777897110944 x[3,3] - 0.1067661905273333 x[3,4]
   - 0.014294919987112 x[3,5] - 0.0246267855225003 x[3,6]
   - 0.00573515197078724 x[3,7] - 0.011212544302438 x[3,8]
   - 0.1057458919557513 x[3,9] - 0.083170443561379 x[3,10]
   - 0.0609708946407475 x[3,11] - 0.0287187197937923 x[3,12]
   - 0.05408656427881 x[3,13] - 0.0042852540006444 x[3,14]
   - 0.1040597143164 x[3,15] - 0.080109547846633 x[3,16]
   - 0.0626355923101708 x[3,17] >= 0
 findWorstP[3,1]: z - 0.0294764974060682 cashProportion[1]
   + 0.0294764974060682 cashProportion[3] - 0.0879087407640308 x[1,1]
   - 0.0812765288476655 x[1,2] - 0.0980093538751769 x[1,3]
   - 0.0150231881779594 x[1,4] - 0.0392725200440182 x[1,5]
   - 0.0864840433894042 x[1,6] - 0.0355388303725829 x[1,7]
   - 0.0739172299952837 x[1,8] - 0.0751257663889325 x[1,9]
   - 0.0862973589058324 x[1,10] - 0.018295079390033 x[1,11]
   - 0.0236794529162081 x[1,12] - 0.06539852224493 x[1,13]
   - 0.0430651627102657 x[1,14] - 0.0168998585128124 x[1,15]
   - 0.09533681811036 x[1,16] - 0.0289950479484358 x[1,17]
   + 0.0879087407640308 x[3,1] + 0.0812765288476655 x[3,2]
   + 0.0980093538751769 x[3,3] + 0.0150231881779594 x[3,4]
   + 0.0392725200440182 x[3,5] + 0.0864840433894042 x[3,6]
   + 0.0355388303725829 x[3,7] + 0.0739172299952837 x[3,8]
   + 0.0751257663889325 x[3,9] + 0.0862973589058324 x[3,10]
   + 0.018295079390033 x[3,11] + 0.0236794529162081 x[3,12]
   + 0.06539852224493 x[3,13] + 0.0430651627102657 x[3,14]
   + 0.0168998585128124 x[3,15] + 0.09533681811036 x[3,16]
   + 0.0289950479484358 x[3,17] >= 0
 findWorstP[3,2]: z - 0.0294764974060682 cashProportion[2]
   + 0.0294764974060682 cashProportion[3] - 0.0879087407640308 x[2,1]
   - 0.0812765288476655 x[2,2] - 0.0980093538751769 x[2,3]
   - 0.0150231881779594 x[2,4] - 0.0392725200440182 x[2,5]
   - 0.0864840433894042 x[2,6] - 0.0355388303725829 x[2,7]
   - 0.0739172299952837 x[2,8] - 0.0751257663889325 x[2,9]
   - 0.0862973589058324 x[2,10] - 0.018295079390033 x[2,11]
   - 0.0236794529162081 x[2,12] - 0.06539852224493 x[2,13]
   - 0.0430651627102657 x[2,14] - 0.0168998585128124 x[2,15]
   - 0.09533681811036 x[2,16] - 0.0289950479484358 x[2,17]
   + 0.0879087407640308 x[3,1] + 0.0812765288476655 x[3,2]
   + 0.0980093538751769 x[3,3] + 0.0150231881779594 x[3,4]
   + 0.0392725200440182 x[3,5] + 0.0864840433894042 x[3,6]
   + 0.0355388303725829 x[3,7] + 0.0739172299952837 x[3,8]
   + 0.0751257663889325 x[3,9] + 0.0862973589058324 x[3,10]
   + 0.018295079390033 x[3,11] + 0.0236794529162081 x[3,12]
   + 0.06539852224493 x[3,13] + 0.0430651627102657 x[3,14]
   + 0.0168998585128124 x[3,15] + 0.09533681811036 x[3,16]
   + 0.0289950479484358 x[3,17] >= 0
Bounds
 z <= 1
 -infinity <= cashProportion[1] <= 1
 -infinity <= cashProportion[2] <= 1
 -infinity <= cashProportion[3] <= 1
Binaries
 x[1,1] x[1,2] x[1,3] x[1,4] x[1,5] x[1,6] x[1,7] x[1,8] x[1,9] x[1,10]
 x[1,11] x[1,12] x[1,13] x[1,14] x[1,15] x[1,16] x[1,17] x[2,1] x[2,2]
 x[2,3] x[2,4] x[2,5] x[2,6] x[2,7] x[2,8] x[2,9] x[2,10] x[2,11] x[2,12]
 x[2,13] x[2,14] x[2,15] x[2,16] x[2,17] x[3,1] x[3,2] x[3,3] x[3,4] x[3,5]
 x[3,6] x[3,7] x[3,8] x[3,9] x[3,10] x[3,11] x[3,12] x[3,13] x[3,14]
 x[3,15] x[3,16] x[3,17]
End
