data/mps_files/q3/57_5.mps
NAME foo
ROWS
 N  OBJ
 E  allocateEach[1]
 E  allocateEach[2]
 E  allocateEach[3]
 E  allocateEach[4]
 E  allocateEach[5]
 E  allocateEach[6]
 E  allocateEach[7]
 E  allocateEach[8]
 E  allocateEach[9]
 E  allocateEach[10]
 E  allocateEach[11]
 E  allocateEach[12]
 E  allocateEach[13]
 E  allocateEach[14]
 E  allocateEach[15]
 E  allocateEach[16]
 E  allocateEach[17]
 E  allocateAllCash
 G  findWorstP[1,2]
 G  findWorstP[1,3]
 G  findWorstP[2,1]
 G  findWorstP[2,3]
 G  findWorstP[3,1]
 G  findWorstP[3,2]
COLUMNS
    z         OBJ       1
    z         findWorstP[1,2]  1
    z         findWorstP[1,3]  1
    z         findWorstP[2,1]  1
    z         findWorstP[2,3]  1
    z         findWorstP[3,1]  1
    z         findWorstP[3,2]  1
    cashProportion[1]  allocateAllCash  1
    cashProportion[1]  findWorstP[1,2]  3.3395300168089670e-02
    cashProportion[1]  findWorstP[1,3]  3.3395300168089670e-02
    cashProportion[1]  findWorstP[2,1]  -3.2219954892063148e-02
    cashProportion[1]  findWorstP[3,1]  -2.9476497406068225e-02
    cashProportion[2]  allocateAllCash  1
    cashProportion[2]  findWorstP[1,2]  -3.3395300168089670e-02
    cashProportion[2]  findWorstP[2,1]  3.2219954892063148e-02
    cashProportion[2]  findWorstP[2,3]  3.2219954892063148e-02
    cashProportion[2]  findWorstP[3,2]  -2.9476497406068225e-02
    cashProportion[3]  allocateAllCash  1
    cashProportion[3]  findWorstP[1,3]  -3.3395300168089670e-02
    cashProportion[3]  findWorstP[2,3]  -3.2219954892063148e-02
    cashProportion[3]  findWorstP[3,1]  2.9476497406068225e-02
    cashProportion[3]  findWorstP[3,2]  2.9476497406068225e-02
    MARKER    'MARKER'                 'INTORG'
    x[1,1]    allocateEach[1]  1
    x[1,1]    findWorstP[1,2]  8.6493827435352253e-03
    x[1,1]    findWorstP[1,3]  8.6493827435352253e-03
    x[1,1]    findWorstP[2,1]  -3.5248630651917086e-02
    x[1,1]    findWorstP[3,1]  -8.7908740764030810e-02
    x[1,2]    allocateEach[2]  1
    x[1,2]    findWorstP[1,2]  9.8738770830318456e-02
    x[1,2]    findWorstP[1,3]  9.8738770830318456e-02
    x[1,2]    findWorstP[2,1]  -9.8335302330576732e-02
    x[1,2]    findWorstP[3,1]  -8.1276528847665452e-02
    x[1,3]    allocateEach[3]  1
    x[1,3]    findWorstP[1,2]  9.9851947502588110e-03
    x[1,3]    findWorstP[1,3]  9.9851947502588110e-03
    x[1,3]    findWorstP[2,1]  -8.7777897110944039e-02
    x[1,3]    findWorstP[3,1]  -9.8009353875176855e-02
    x[1,4]    allocateEach[4]  1
    x[1,4]    findWorstP[1,2]  8.4412187058207980e-02
    x[1,4]    findWorstP[1,3]  8.4412187058207980e-02
    x[1,4]    findWorstP[2,1]  -1.0676619052733326e-01
    x[1,4]    findWorstP[3,1]  -1.5023188177959439e-02
    x[1,5]    allocateEach[5]  1
    x[1,5]    findWorstP[1,2]  3.4842429842040223e-02
    x[1,5]    findWorstP[1,3]  3.4842429842040223e-02
    x[1,5]    findWorstP[2,1]  -1.4294919987112017e-02
    x[1,5]    findWorstP[3,1]  -3.9272520044018232e-02
    x[1,6]    allocateEach[6]  1
    x[1,6]    findWorstP[1,2]  7.3970589872318623e-02
    x[1,6]    findWorstP[1,3]  7.3970589872318623e-02
    x[1,6]    findWorstP[2,1]  -2.4626785522500267e-02
    x[1,6]    findWorstP[3,1]  -8.6484043389404172e-02
    x[1,7]    allocateEach[7]  1
    x[1,7]    findWorstP[1,2]  9.5176605479055557e-02
    x[1,7]    findWorstP[1,3]  9.5176605479055557e-02
    x[1,7]    findWorstP[2,1]  -5.7351519707872414e-03
    x[1,7]    findWorstP[3,1]  -3.5538830372582923e-02
    x[1,8]    allocateEach[8]  1
    x[1,8]    findWorstP[1,2]  1.1026014938830940e-01
    x[1,8]    findWorstP[1,3]  1.1026014938830940e-01
    x[1,8]    findWorstP[2,1]  -1.1212544302437977e-02
    x[1,8]    findWorstP[3,1]  -7.3917229995283745e-02
    x[1,9]    allocateEach[9]  1
    x[1,9]    findWorstP[1,2]  1.0125455010964787e-01
    x[1,9]    findWorstP[1,3]  1.0125455010964787e-01
    x[1,9]    findWorstP[2,1]  -1.0574589195575126e-01
    x[1,9]    findWorstP[3,1]  -7.5125766388932549e-02
    x[1,10]   allocateEach[10]  1
    x[1,10]   findWorstP[1,2]  2.4133670254806134e-02
    x[1,10]   findWorstP[1,3]  2.4133670254806134e-02
    x[1,10]   findWorstP[2,1]  -8.3170443561379009e-02
    x[1,10]   findWorstP[3,1]  -0.0862973589058324
    x[1,11]   allocateEach[11]  1
    x[1,11]   findWorstP[1,2]  4.6207963665913412e-02
    x[1,11]   findWorstP[1,3]  4.6207963665913412e-02
    x[1,11]   findWorstP[2,1]  -0.0609708946407475
    x[1,11]   findWorstP[3,1]  -1.8295079390033012e-02
    x[1,12]   allocateEach[12]  1
    x[1,12]   findWorstP[1,2]  8.9722039784934246e-02
    x[1,12]   findWorstP[1,3]  8.9722039784934246e-02
    x[1,12]   findWorstP[2,1]  -2.8718719793792293e-02
    x[1,12]   findWorstP[3,1]  -2.3679452916208141e-02
    x[1,13]   allocateEach[13]  1
    x[1,13]   findWorstP[1,2]  9.1603308361069960e-02
    x[1,13]   findWorstP[1,3]  9.1603308361069960e-02
    x[1,13]   findWorstP[2,1]  -5.4086564278810013e-02
    x[1,13]   findWorstP[3,1]  -6.5398522244930035e-02
    x[1,14]   allocateEach[14]  1
    x[1,14]   findWorstP[1,2]  4.3491812585575447e-02
    x[1,14]   findWorstP[1,3]  4.3491812585575447e-02
    x[1,14]   findWorstP[2,1]  -4.2852540006443991e-03
    x[1,14]   findWorstP[3,1]  -4.3065162710265677e-02
    x[1,15]   allocateEach[15]  1
    x[1,15]   findWorstP[1,2]  2.1361860340854692e-02
    x[1,15]   findWorstP[1,3]  2.1361860340854692e-02
    x[1,15]   findWorstP[2,1]  -1.0405971431639996e-01
    x[1,15]   findWorstP[3,1]  -1.6899858512812449e-02
    x[1,16]   allocateEach[16]  1
    x[1,16]   findWorstP[1,2]  3.1781193993298665e-02
    x[1,16]   findWorstP[1,3]  3.1781193993298665e-02
    x[1,16]   findWorstP[2,1]  -8.0109547846633017e-02
    x[1,16]   findWorstP[3,1]  -0.09533681811036
    x[1,17]   allocateEach[17]  1
    x[1,17]   findWorstP[1,2]  1.0129907717653867e-03
    x[1,17]   findWorstP[1,3]  1.0129907717653867e-03
    x[1,17]   findWorstP[2,1]  -6.2635592310170768e-02
    x[1,17]   findWorstP[3,1]  -2.8995047948435774e-02
    x[2,1]    allocateEach[1]  1
    x[2,1]    findWorstP[1,2]  -8.6493827435352253e-03
    x[2,1]    findWorstP[2,1]  3.5248630651917086e-02
    x[2,1]    findWorstP[2,3]  3.5248630651917086e-02
    x[2,1]    findWorstP[3,2]  -8.7908740764030810e-02
    x[2,2]    allocateEach[2]  1
    x[2,2]    findWorstP[1,2]  -9.8738770830318456e-02
    x[2,2]    findWorstP[2,1]  9.8335302330576732e-02
    x[2,2]    findWorstP[2,3]  9.8335302330576732e-02
    x[2,2]    findWorstP[3,2]  -8.1276528847665452e-02
    x[2,3]    allocateEach[3]  1
    x[2,3]    findWorstP[1,2]  -9.9851947502588110e-03
    x[2,3]    findWorstP[2,1]  8.7777897110944039e-02
    x[2,3]    findWorstP[2,3]  8.7777897110944039e-02
    x[2,3]    findWorstP[3,2]  -9.8009353875176855e-02
    x[2,4]    allocateEach[4]  1
    x[2,4]    findWorstP[1,2]  -8.4412187058207980e-02
    x[2,4]    findWorstP[2,1]  1.0676619052733326e-01
    x[2,4]    findWorstP[2,3]  1.0676619052733326e-01
    x[2,4]    findWorstP[3,2]  -1.5023188177959439e-02
    x[2,5]    allocateEach[5]  1
    x[2,5]    findWorstP[1,2]  -3.4842429842040223e-02
    x[2,5]    findWorstP[2,1]  1.4294919987112017e-02
    x[2,5]    findWorstP[2,3]  1.4294919987112017e-02
    x[2,5]    findWorstP[3,2]  -3.9272520044018232e-02
    x[2,6]    allocateEach[6]  1
    x[2,6]    findWorstP[1,2]  -7.3970589872318623e-02
    x[2,6]    findWorstP[2,1]  2.4626785522500267e-02
    x[2,6]    findWorstP[2,3]  2.4626785522500267e-02
    x[2,6]    findWorstP[3,2]  -8.6484043389404172e-02
    x[2,7]    allocateEach[7]  1
    x[2,7]    findWorstP[1,2]  -9.5176605479055557e-02
    x[2,7]    findWorstP[2,1]  5.7351519707872414e-03
    x[2,7]    findWorstP[2,3]  5.7351519707872414e-03
    x[2,7]    findWorstP[3,2]  -3.5538830372582923e-02
    x[2,8]    allocateEach[8]  1
    x[2,8]    findWorstP[1,2]  -1.1026014938830940e-01
    x[2,8]    findWorstP[2,1]  1.1212544302437977e-02
    x[2,8]    findWorstP[2,3]  1.1212544302437977e-02
    x[2,8]    findWorstP[3,2]  -7.3917229995283745e-02
    x[2,9]    allocateEach[9]  1
    x[2,9]    findWorstP[1,2]  -1.0125455010964787e-01
    x[2,9]    findWorstP[2,1]  1.0574589195575126e-01
    x[2,9]    findWorstP[2,3]  1.0574589195575126e-01
    x[2,9]    findWorstP[3,2]  -7.5125766388932549e-02
    x[2,10]   allocateEach[10]  1
    x[2,10]   findWorstP[1,2]  -2.4133670254806134e-02
    x[2,10]   findWorstP[2,1]  8.3170443561379009e-02
    x[2,10]   findWorstP[2,3]  8.3170443561379009e-02
    x[2,10]   findWorstP[3,2]  -0.0862973589058324
    x[2,11]   allocateEach[11]  1
    x[2,11]   findWorstP[1,2]  -4.6207963665913412e-02
    x[2,11]   findWorstP[2,1]  0.0609708946407475
    x[2,11]   findWorstP[2,3]  0.0609708946407475
    x[2,11]   findWorstP[3,2]  -1.8295079390033012e-02
    x[2,12]   allocateEach[12]  1
    x[2,12]   findWorstP[1,2]  -8.9722039784934246e-02
    x[2,12]   findWorstP[2,1]  2.8718719793792293e-02
    x[2,12]   findWorstP[2,3]  2.8718719793792293e-02
    x[2,12]   findWorstP[3,2]  -2.3679452916208141e-02
    x[2,13]   allocateEach[13]  1
    x[2,13]   findWorstP[1,2]  -9.1603308361069960e-02
    x[2,13]   findWorstP[2,1]  5.4086564278810013e-02
    x[2,13]   findWorstP[2,3]  5.4086564278810013e-02
    x[2,13]   findWorstP[3,2]  -6.5398522244930035e-02
    x[2,14]   allocateEach[14]  1
    x[2,14]   findWorstP[1,2]  -4.3491812585575447e-02
    x[2,14]   findWorstP[2,1]  4.2852540006443991e-03
    x[2,14]   findWorstP[2,3]  4.2852540006443991e-03
    x[2,14]   findWorstP[3,2]  -4.3065162710265677e-02
    x[2,15]   allocateEach[15]  1
    x[2,15]   findWorstP[1,2]  -2.1361860340854692e-02
    x[2,15]   findWorstP[2,1]  1.0405971431639996e-01
    x[2,15]   findWorstP[2,3]  1.0405971431639996e-01
    x[2,15]   findWorstP[3,2]  -1.6899858512812449e-02
    x[2,16]   allocateEach[16]  1
    x[2,16]   findWorstP[1,2]  -3.1781193993298665e-02
    x[2,16]   findWorstP[2,1]  8.0109547846633017e-02
    x[2,16]   findWorstP[2,3]  8.0109547846633017e-02
    x[2,16]   findWorstP[3,2]  -0.09533681811036
    x[2,17]   allocateEach[17]  1
    x[2,17]   findWorstP[1,2]  -1.0129907717653867e-03
    x[2,17]   findWorstP[2,1]  6.2635592310170768e-02
    x[2,17]   findWorstP[2,3]  6.2635592310170768e-02
    x[2,17]   findWorstP[3,2]  -2.8995047948435774e-02
    x[3,1]    allocateEach[1]  1
    x[3,1]    findWorstP[1,3]  -8.6493827435352253e-03
    x[3,1]    findWorstP[2,3]  -3.5248630651917086e-02
    x[3,1]    findWorstP[3,1]  8.7908740764030810e-02
    x[3,1]    findWorstP[3,2]  8.7908740764030810e-02
    x[3,2]    allocateEach[2]  1
    x[3,2]    findWorstP[1,3]  -9.8738770830318456e-02
    x[3,2]    findWorstP[2,3]  -9.8335302330576732e-02
    x[3,2]    findWorstP[3,1]  8.1276528847665452e-02
    x[3,2]    findWorstP[3,2]  8.1276528847665452e-02
    x[3,3]    allocateEach[3]  1
    x[3,3]    findWorstP[1,3]  -9.9851947502588110e-03
    x[3,3]    findWorstP[2,3]  -8.7777897110944039e-02
    x[3,3]    findWorstP[3,1]  9.8009353875176855e-02
    x[3,3]    findWorstP[3,2]  9.8009353875176855e-02
    x[3,4]    allocateEach[4]  1
    x[3,4]    findWorstP[1,3]  -8.4412187058207980e-02
    x[3,4]    findWorstP[2,3]  -1.0676619052733326e-01
    x[3,4]    findWorstP[3,1]  1.5023188177959439e-02
    x[3,4]    findWorstP[3,2]  1.5023188177959439e-02
    x[3,5]    allocateEach[5]  1
    x[3,5]    findWorstP[1,3]  -3.4842429842040223e-02
    x[3,5]    findWorstP[2,3]  -1.4294919987112017e-02
    x[3,5]    findWorstP[3,1]  3.9272520044018232e-02
    x[3,5]    findWorstP[3,2]  3.9272520044018232e-02
    x[3,6]    allocateEach[6]  1
    x[3,6]    findWorstP[1,3]  -7.3970589872318623e-02
    x[3,6]    findWorstP[2,3]  -2.4626785522500267e-02
    x[3,6]    findWorstP[3,1]  8.6484043389404172e-02
    x[3,6]    findWorstP[3,2]  8.6484043389404172e-02
    x[3,7]    allocateEach[7]  1
    x[3,7]    findWorstP[1,3]  -9.5176605479055557e-02
    x[3,7]    findWorstP[2,3]  -5.7351519707872414e-03
    x[3,7]    findWorstP[3,1]  3.5538830372582923e-02
    x[3,7]    findWorstP[3,2]  3.5538830372582923e-02
    x[3,8]    allocateEach[8]  1
    x[3,8]    findWorstP[1,3]  -1.1026014938830940e-01
    x[3,8]    findWorstP[2,3]  -1.1212544302437977e-02
    x[3,8]    findWorstP[3,1]  7.3917229995283745e-02
    x[3,8]    findWorstP[3,2]  7.3917229995283745e-02
    x[3,9]    allocateEach[9]  1
    x[3,9]    findWorstP[1,3]  -1.0125455010964787e-01
    x[3,9]    findWorstP[2,3]  -1.0574589195575126e-01
    x[3,9]    findWorstP[3,1]  7.5125766388932549e-02
    x[3,9]    findWorstP[3,2]  7.5125766388932549e-02
    x[3,10]   allocateEach[10]  1
    x[3,10]   findWorstP[1,3]  -2.4133670254806134e-02
    x[3,10]   findWorstP[2,3]  -8.3170443561379009e-02
    x[3,10]   findWorstP[3,1]  0.0862973589058324
    x[3,10]   findWorstP[3,2]  0.0862973589058324
    x[3,11]   allocateEach[11]  1
    x[3,11]   findWorstP[1,3]  -4.6207963665913412e-02
    x[3,11]   findWorstP[2,3]  -0.0609708946407475
    x[3,11]   findWorstP[3,1]  1.8295079390033012e-02
    x[3,11]   findWorstP[3,2]  1.8295079390033012e-02
    x[3,12]   allocateEach[12]  1
    x[3,12]   findWorstP[1,3]  -8.9722039784934246e-02
    x[3,12]   findWorstP[2,3]  -2.8718719793792293e-02
    x[3,12]   findWorstP[3,1]  2.3679452916208141e-02
    x[3,12]   findWorstP[3,2]  2.3679452916208141e-02
    x[3,13]   allocateEach[13]  1
    x[3,13]   findWorstP[1,3]  -9.1603308361069960e-02
    x[3,13]   findWorstP[2,3]  -5.4086564278810013e-02
    x[3,13]   findWorstP[3,1]  6.5398522244930035e-02
    x[3,13]   findWorstP[3,2]  6.5398522244930035e-02
    x[3,14]   allocateEach[14]  1
    x[3,14]   findWorstP[1,3]  -4.3491812585575447e-02
    x[3,14]   findWorstP[2,3]  -4.2852540006443991e-03
    x[3,14]   findWorstP[3,1]  4.3065162710265677e-02
    x[3,14]   findWorstP[3,2]  4.3065162710265677e-02
    x[3,15]   allocateEach[15]  1
    x[3,15]   findWorstP[1,3]  -2.1361860340854692e-02
    x[3,15]   findWorstP[2,3]  -1.0405971431639996e-01
    x[3,15]   findWorstP[3,1]  1.6899858512812449e-02
    x[3,15]   findWorstP[3,2]  1.6899858512812449e-02
    x[3,16]   allocateEach[16]  1
    x[3,16]   findWorstP[1,3]  -3.1781193993298665e-02
    x[3,16]   findWorstP[2,3]  -8.0109547846633017e-02
    x[3,16]   findWorstP[3,1]  0.09533681811036
    x[3,16]   findWorstP[3,2]  0.09533681811036
    x[3,17]   allocateEach[17]  1
    x[3,17]   findWorstP[1,3]  -1.0129907717653867e-03
    x[3,17]   findWorstP[2,3]  -6.2635592310170768e-02
    x[3,17]   findWorstP[3,1]  2.8995047948435774e-02
    x[3,17]   findWorstP[3,2]  2.8995047948435774e-02
    MARKER    'MARKER'                 'INTEND'
RHS
    RHS1      allocateEach[1]  1
    RHS1      allocateEach[2]  1
    RHS1      allocateEach[3]  1
    RHS1      allocateEach[4]  1
    RHS1      allocateEach[5]  1
    RHS1      allocateEach[6]  1
    RHS1      allocateEach[7]  1
    RHS1      allocateEach[8]  1
    RHS1      allocateEach[9]  1
    RHS1      allocateEach[10]  1
    RHS1      allocateEach[11]  1
    RHS1      allocateEach[12]  1
    RHS1      allocateEach[13]  1
    RHS1      allocateEach[14]  1
    RHS1      allocateEach[15]  1
    RHS1      allocateEach[16]  1
    RHS1      allocateEach[17]  1
    RHS1      allocateAllCash  1
BOUNDS
 UP BND1      z         1
 MI BND1      cashProportion[1]
 UP BND1      cashProportion[1]  1
 MI BND1      cashProportion[2]
 UP BND1      cashProportion[2]  1
 MI BND1      cashProportion[3]
 UP BND1      cashProportion[3]  1
 BV BND1      x[1,1]  
 BV BND1      x[1,2]  
 BV BND1      x[1,3]  
 BV BND1      x[1,4]  
 BV BND1      x[1,5]  
 BV BND1      x[1,6]  
 BV BND1      x[1,7]  
 BV BND1      x[1,8]  
 BV BND1      x[1,9]  
 BV BND1      x[1,10] 
 BV BND1      x[1,11] 
 BV BND1      x[1,12] 
 BV BND1      x[1,13] 
 BV BND1      x[1,14] 
 BV BND1      x[1,15] 
 BV BND1      x[1,16] 
 BV BND1      x[1,17] 
 BV BND1      x[2,1]  
 BV BND1      x[2,2]  
 BV BND1      x[2,3]  
 BV BND1      x[2,4]  
 BV BND1      x[2,5]  
 BV BND1      x[2,6]  
 BV BND1      x[2,7]  
 BV BND1      x[2,8]  
 BV BND1      x[2,9]  
 BV BND1      x[2,10] 
 BV BND1      x[2,11] 
 BV BND1      x[2,12] 
 BV BND1      x[2,13] 
 BV BND1      x[2,14] 
 BV BND1      x[2,15] 
 BV BND1      x[2,16] 
 BV BND1      x[2,17] 
 BV BND1      x[3,1]  
 BV BND1      x[3,2]  
 BV BND1      x[3,3]  
 BV BND1      x[3,4]  
 BV BND1      x[3,5]  
 BV BND1      x[3,6]  
 BV BND1      x[3,7]  
 BV BND1      x[3,8]  
 BV BND1      x[3,9]  
 BV BND1      x[3,10] 
 BV BND1      x[3,11] 
 BV BND1      x[3,12] 
 BV BND1      x[3,13] 
 BV BND1      x[3,14] 
 BV BND1      x[3,15] 
 BV BND1      x[3,16] 
 BV BND1      x[3,17] 
ENDATA
